ilp_joint/output/transpiration_ilp.lp
Maximize
  7.9283667931668526e-04 Z_537_2_0 + 0.00313913722259498 Z_537_2_1
   + 0.8676924494975904 Z_537_2_2 + 0.0211834208050572 Z_537_2_3
   + 0.00719215579544082 Z_537_2_4 + 8.7993718588314786e-04 Z_83_1_0
   + 0.00374270381293541 Z_83_1_1 + 0.8577325789542111 Z_83_1_2
   + 0.0203284683189106 Z_83_1_3 + 0.0173163117280599 Z_83_1_4 + [
   0.4 Z_537_2_0 * Z_83_1_0 + 0.4 Z_537_2_1 * Z_83_1_1
   + 0.4 Z_537_2_2 * Z_83_1_2 + 0.4 Z_537_2_3 * Z_83_1_3
   + 0.4 Z_537_2_4 * Z_83_1_4 ] / 2 
Subject To
 constraint1_5372: Z_537_2_0 + Z_537_2_1 + Z_537_2_2 + Z_537_2_3
   + Z_537_2_4 <= 1
 constraint1_831: Z_83_1_0 + Z_83_1_1 + Z_83_1_2 + Z_83_1_3 + Z_83_1_4
   <= 1
 constraint2_5370: Z_537_2_0 <= 1
 constraint2_5371: Z_537_2_1 <= 1
 constraint2_5372: Z_537_2_2 <= 1
 constraint2_5373: Z_537_2_3 <= 1
 constraint2_830: Z_83_1_0 <= 1
 constraint2_831: Z_83_1_1 <= 1
 constraint2_832: Z_83_1_2 <= 1
 constraint2_833: Z_83_1_3 <= 1
Bounds
Binaries
 Z_537_2_0 Z_537_2_1 Z_537_2_2 Z_537_2_3 Z_537_2_4 Z_83_1_0 Z_83_1_1
 Z_83_1_2 Z_83_1_3 Z_83_1_4
End
