ilp_joint/output/transpiration_ilp.mps
NAME transpiration_srl_ilp
* Max problem is converted into Min one
ROWS
 N  OBJ
 L  constraint1_2240
 L  constraint1_831
 L  constraint1_830
 L  constraint1_1510
 L  constraint1_3280
 L  constraint1_790
 L  constraint1_3700
 L  constraint1_5110
 L  constraint2_2240
 L  constraint2_2241
 L  constraint2_2242
 L  constraint2_2243
 L  constraint2_830
 L  constraint2_831
 L  constraint2_832
 L  constraint2_833
 L  constraint2_1510
 L  constraint2_1511
 L  constraint2_1512
 L  constraint2_1513
 L  constraint2_3280
 L  constraint2_3281
 L  constraint2_3282
 L  constraint2_3283
 L  constraint2_790
 L  constraint2_791
 L  constraint2_792
 L  constraint2_793
 L  constraint2_3700
 L  constraint2_3701
 L  constraint2_3702
 L  constraint2_3703
 L  constraint2_5110
 L  constraint2_5111
 L  constraint2_5112
 L  constraint2_5113
COLUMNS
    MARKER    'MARKER'                 'INTORG'
    Z_224_0_0  OBJ       -3.7577470880936217e-04
    Z_224_0_0  constraint1_2240  1
    Z_224_0_0  constraint2_2240  1
    Z_224_0_1  OBJ       -6.6686221688170441e-02
    Z_224_0_1  constraint1_2240  1
    Z_224_0_1  constraint2_2241  1
    Z_224_0_2  OBJ       -6.7814698002041107e-01
    Z_224_0_2  constraint1_2240  1
    Z_224_0_2  constraint2_2242  1
    Z_224_0_3  OBJ       -9.4031247060390923e-03
    Z_224_0_3  constraint1_2240  1
    Z_224_0_3  constraint2_2243  1
    Z_83_1_0  OBJ       -3.9343244896945075e-03
    Z_83_1_0  constraint1_831  1
    Z_83_1_0  constraint2_830  1
    Z_83_1_1  OBJ       -1.0125173587878955e-02
    Z_83_1_1  constraint1_831  1
    Z_83_1_1  constraint2_831  1
    Z_83_1_2  OBJ       -8.4940266691072341e-01
    Z_83_1_2  constraint1_831  1
    Z_83_1_2  constraint2_832  1
    Z_83_1_3  OBJ       -3.8031500431670376e-02
    Z_83_1_3  constraint1_831  1
    Z_83_1_3  constraint2_833  1
    Z_83_0_0  OBJ       -5.3643260884263903e-02
    Z_83_0_0  constraint1_830  1
    Z_83_0_0  constraint2_830  1
    Z_83_0_1  OBJ       -5.6613744625775224e-02
    Z_83_0_1  constraint1_830  1
    Z_83_0_1  constraint2_831  1
    Z_83_0_2  OBJ       -4.2201909900052494e-02
    Z_83_0_2  constraint1_830  1
    Z_83_0_2  constraint2_832  1
    Z_83_0_3  OBJ       -2.5809054017105237e-01
    Z_83_0_3  constraint1_830  1
    Z_83_0_3  constraint2_833  1
    Z_151_0_0  OBJ       -7.3926627402291613e-03
    Z_151_0_0  constraint1_1510  1
    Z_151_0_0  constraint2_1510  1
    Z_151_0_1  OBJ       -2.5242274058090319e-02
    Z_151_0_1  constraint1_1510  1
    Z_151_0_1  constraint2_1511  1
    Z_151_0_2  OBJ       -3.2557802889117859e-01
    Z_151_0_2  constraint1_1510  1
    Z_151_0_2  constraint2_1512  1
    Z_151_0_3  OBJ       -2.4836553539697669e-02
    Z_151_0_3  constraint1_1510  1
    Z_151_0_3  constraint2_1513  1
    Z_328_0_0  OBJ       -1.3005488208061545e-02
    Z_328_0_0  constraint1_3280  1
    Z_328_0_0  constraint2_3280  1
    Z_328_0_1  OBJ       -1.6864483009614874e-02
    Z_328_0_1  constraint1_3280  1
    Z_328_0_1  constraint2_3281  1
    Z_328_0_2  OBJ       -4.5842998781318711e-01
    Z_328_0_2  constraint1_3280  1
    Z_328_0_2  constraint2_3282  1
    Z_328_0_3  OBJ       -1.0480781970186222e-01
    Z_328_0_3  constraint1_3280  1
    Z_328_0_3  constraint2_3283  1
    Z_79_0_0  OBJ       -4.4270097523985141e-04
    Z_79_0_0  constraint1_790  1
    Z_79_0_0  constraint2_790  1
    Z_79_0_1  OBJ       -7.7331066174797861e-02
    Z_79_0_1  constraint1_790  1
    Z_79_0_1  constraint2_791  1
    Z_79_0_2  OBJ       -5.6075234219833781e-01
    Z_79_0_2  constraint1_790  1
    Z_79_0_2  constraint2_792  1
    Z_79_0_3  OBJ       -7.4553871756723698e-03
    Z_79_0_3  constraint1_790  1
    Z_79_0_3  constraint2_793  1
    Z_370_0_0  OBJ       -2.7864174796636856e-02
    Z_370_0_0  constraint1_3700  1
    Z_370_0_0  constraint2_3700  1
    Z_370_0_1  OBJ       -2.2946728341116163e-02
    Z_370_0_1  constraint1_3700  1
    Z_370_0_1  constraint2_3701  1
    Z_370_0_2  OBJ       -6.1964122038335200e-02
    Z_370_0_2  constraint1_3700  1
    Z_370_0_2  constraint2_3702  1
    Z_370_0_3  OBJ       -3.7487538504727060e-02
    Z_370_0_3  constraint1_3700  1
    Z_370_0_3  constraint2_3703  1
    Z_511_0_0  OBJ       -5.3334096978919783e-04
    Z_511_0_0  constraint1_5110  1
    Z_511_0_0  constraint2_5110  1
    Z_511_0_1  OBJ       -3.7611401663739163e-02
    Z_511_0_1  constraint1_5110  1
    Z_511_0_1  constraint2_5111  1
    Z_511_0_2  OBJ       -4.2588001020064797e-01
    Z_511_0_2  constraint1_5110  1
    Z_511_0_2  constraint2_5112  1
    Z_511_0_3  OBJ       -1.0165538132943476e-02
    Z_511_0_3  constraint1_5110  1
    Z_511_0_3  constraint2_5113  1
    MARKER    'MARKER'                 'INTEND'
RHS
    RHS1      constraint1_2240  1
    RHS1      constraint1_831  1
    RHS1      constraint1_830  1
    RHS1      constraint1_1510  1
    RHS1      constraint1_3280  1
    RHS1      constraint1_790  1
    RHS1      constraint1_3700  1
    RHS1      constraint1_5110  1
    RHS1      constraint2_2240  1
    RHS1      constraint2_2241  1
    RHS1      constraint2_2242  1
    RHS1      constraint2_2243  1
    RHS1      constraint2_830  1
    RHS1      constraint2_831  1
    RHS1      constraint2_832  1
    RHS1      constraint2_833  1
    RHS1      constraint2_1510  1
    RHS1      constraint2_1511  1
    RHS1      constraint2_1512  1
    RHS1      constraint2_1513  1
    RHS1      constraint2_3280  1
    RHS1      constraint2_3281  1
    RHS1      constraint2_3282  1
    RHS1      constraint2_3283  1
    RHS1      constraint2_790  1
    RHS1      constraint2_791  1
    RHS1      constraint2_792  1
    RHS1      constraint2_793  1
    RHS1      constraint2_3700  1
    RHS1      constraint2_3701  1
    RHS1      constraint2_3702  1
    RHS1      constraint2_3703  1
    RHS1      constraint2_5110  1
    RHS1      constraint2_5111  1
    RHS1      constraint2_5112  1
    RHS1      constraint2_5113  1
BOUNDS
 UP BND1      Z_224_0_0  1
 UP BND1      Z_224_0_1  1
 UP BND1      Z_224_0_2  1
 UP BND1      Z_224_0_3  1
 UP BND1      Z_83_1_0  1
 UP BND1      Z_83_1_1  1
 UP BND1      Z_83_1_2  1
 UP BND1      Z_83_1_3  1
 UP BND1      Z_83_0_0  1
 UP BND1      Z_83_0_1  1
 UP BND1      Z_83_0_2  1
 UP BND1      Z_83_0_3  1
 UP BND1      Z_151_0_0  1
 UP BND1      Z_151_0_1  1
 UP BND1      Z_151_0_2  1
 UP BND1      Z_151_0_3  1
 UP BND1      Z_328_0_0  1
 UP BND1      Z_328_0_1  1
 UP BND1      Z_328_0_2  1
 UP BND1      Z_328_0_3  1
 UP BND1      Z_79_0_0  1
 UP BND1      Z_79_0_1  1
 UP BND1      Z_79_0_2  1
 UP BND1      Z_79_0_3  1
 UP BND1      Z_370_0_0  1
 UP BND1      Z_370_0_1  1
 UP BND1      Z_370_0_2  1
 UP BND1      Z_370_0_3  1
 UP BND1      Z_511_0_0  1
 UP BND1      Z_511_0_1  1
 UP BND1      Z_511_0_2  1
 UP BND1      Z_511_0_3  1
QUADOBJ
    Z_224_0_0  Z_83_0_0  -1.3850415512465370e-04
    Z_224_0_1  Z_83_0_1  -1.3850415512465370e-04
    Z_224_0_2  Z_83_0_2  -1.3850415512465370e-04
    Z_224_0_3  Z_83_0_3  -1.3850415512465370e-04
    Z_151_0_0  Z_79_0_0  -9.0086032160713458e-06
    Z_151_0_0  Z_370_0_0  -1.9999999999999996e-01
    Z_151_0_1  Z_79_0_1  -9.0086032160713458e-06
    Z_151_0_1  Z_370_0_1  -1.9999999999999996e-01
    Z_151_0_2  Z_79_0_2  -9.0086032160713458e-06
    Z_151_0_2  Z_370_0_2  -1.9999999999999996e-01
    Z_151_0_3  Z_79_0_3  -9.0086032160713458e-06
    Z_151_0_3  Z_370_0_3  -1.9999999999999996e-01
    Z_79_0_0  Z_370_0_0  -9.0086032160713458e-06
    Z_79_0_1  Z_370_0_1  -9.0086032160713458e-06
    Z_79_0_2  Z_370_0_2  -9.0086032160713458e-06
    Z_79_0_3  Z_370_0_3  -9.0086032160713458e-06
ENDATA
