ilp_joint/output/transpiration_ilp.sol
# Solution for model transpiration_srl_ilp
# Objective value = 3.8182626954503061e+00
Z_224_0_0 0
Z_224_0_1 0
Z_224_0_2 1
Z_224_0_3 0
Z_83_1_0 0
Z_83_1_1 0
Z_83_1_2 1
Z_83_1_3 0
Z_83_0_0 0
Z_83_0_1 0
Z_83_0_2 0
Z_83_0_3 1
Z_151_0_0 0
Z_151_0_1 0
Z_151_0_2 1
Z_151_0_3 0
Z_328_0_0 0
Z_328_0_1 0
Z_328_0_2 1
Z_328_0_3 0
Z_79_0_0 0
Z_79_0_1 0
Z_79_0_2 1
Z_79_0_3 0
Z_370_0_0 0
Z_370_0_1 0
Z_370_0_2 1
Z_370_0_3 0
Z_511_0_0 0
Z_511_0_1 0
Z_511_0_2 1
Z_511_0_3 0
